% seed = 5815580

mint = 61;
% maxt = 233;

nActs = 42;
dur = [0,7,10,1,10,10,2,4,5,5,7,2,2,8,1,4,8,9,2,6,4,7,2,7,3,9,7,9,9,6,2,10,9,10,4,9,2,4,7,2,8,0];

nSkills = 4;
sreq = [| 0,0,0,0,
	| 3,3,0,5,
	| 7,0,5,7,
	| 0,4,5,0,
	| 2,4,5,2,
	| 6,2,5,3,
	| 1,4,2,3,
	| 4,3,4,1,
	| 3,3,1,4,
	| 0,4,7,0,
	| 6,2,6,5,
	| 3,3,0,4,
	| 1,3,4,4,
	| 5,6,0,7,
	| 2,0,4,2,
	| 7,2,6,2,
	| 0,7,0,6,
	| 4,7,3,4,
	| 4,3,5,0,
	| 0,0,7,3,
	| 3,5,5,3,
	| 1,4,6,3,
	| 3,2,1,5,
	| 3,1,3,2,
	| 3,5,2,0,
	| 2,0,4,0,
	| 3,4,1,5,
	| 0,0,6,6,
	| 4,4,0,4,
	| 4,6,3,2,
	| 0,4,2,3,
	| 3,4,6,1,
	| 7,3,0,0,
	| 4,2,2,2,
	| 5,1,1,2,
	| 2,6,5,0,
	| 2,5,2,1,
	| 5,4,0,0,
	| 3,1,5,2,
	| 0,0,4,4,
	| 0,3,0,7,
	| 0,0,0,0, |];

nResources = 38;
mastery = [| true,true,false,true,
	| false,true,false,false,
	| true,false,false,true,
	| true,true,false,true,
	| true,false,false,true,
	| false,false,true,true,
	| true,true,true,false,
	| true,true,true,false,
	| true,true,false,false,
	| true,false,true,false,
	| true,false,true,true,
	| true,false,false,true,
	| true,true,true,false,
	| true,true,false,true,
	| false,true,false,true,
	| true,false,false,false,
	| false,true,true,false,
	| true,false,true,true,
	| true,false,false,false,
	| false,true,true,true,
	| true,false,false,true,
	| false,false,false,true,
	| true,true,false,true,
	| true,true,true,false,
	| true,false,false,false,
	| true,true,false,true,
	| true,false,false,true,
	| true,false,false,false,
	| false,true,false,true,
	| false,false,true,false,
	| true,true,false,true,
	| false,true,true,true,
	| false,true,false,true,
	| false,false,true,false,
	| false,false,true,true,
	| true,true,true,false,
	| true,true,false,true,
	| true,false,true,true, |];

nPrecs = 85;
pred = [1,1,1,2,2,2,3,3,4,4,4,5,5,5,6,6,6,7,7,8,9,9,9,10,10,11,11,11,12,12,12,13,13,13,14,14,14,15,15,15,16,16,17,17,17,18,19,19,20,20,21,21,21,22,22,22,23,23,23,24,24,25,25,26,26,26,27,27,27,28,29,30,31,31,32,32,33,34,35,36,37,38,39,40,41];
succ = [2,3,4,9,20,8,35,16,25,5,6,15,7,8,35,14,16,39,40,12,10,12,13,11,28,19,15,24,26,28,23,17,22,15,18,22,30,18,27,31,17,29,18,30,26,37,33,26,25,21,27,28,22,41,34,29,33,36,32,25,30,41,36,37,31,32,33,29,40,31,37,38,34,36,34,39,35,38,41,38,39,40,42,42,42];

nUnrels = 386;
unpred = [2,2,2,2,2,2,2,3,3,3,3,3,3,3,3,3,3,3,3,3,3,3,3,3,3,3,3,3,3,4,4,4,4,4,4,4,4,5,5,5,5,5,5,5,5,5,5,5,5,5,5,5,6,6,6,6,6,6,6,6,6,6,6,6,6,6,6,6,6,7,7,7,7,7,7,7,7,7,7,7,7,7,7,7,7,7,7,7,7,7,7,7,7,7,7,7,7,7,7,7,7,8,8,8,8,8,8,8,8,8,8,8,8,8,8,8,8,8,8,9,9,9,9,10,10,10,10,10,10,10,10,10,11,11,11,11,11,11,11,11,11,11,12,12,12,12,12,12,12,12,12,12,12,12,12,12,12,13,13,13,13,13,13,13,13,13,14,14,14,14,14,14,14,14,14,14,14,14,14,14,14,14,14,15,15,15,15,15,15,15,15,15,15,15,15,15,16,16,16,16,16,16,16,16,16,16,16,16,17,17,17,17,17,17,17,17,17,17,17,17,17,18,18,18,18,18,18,18,18,18,18,18,18,18,18,18,18,18,18,18,18,18,19,19,19,19,19,19,19,19,19,19,20,20,20,20,20,21,21,21,21,21,21,22,22,22,22,22,22,22,22,22,22,22,22,23,23,23,23,23,23,23,23,23,24,24,24,24,24,24,24,24,24,24,24,25,25,25,25,25,25,25,25,25,25,25,25,26,26,26,26,26,26,26,27,27,27,27,27,27,27,28,28,28,28,28,28,28,28,29,29,29,29,29,29,29,29,29,29,30,30,30,30,30,30,30,30,30,31,31,31,31,31,31,32,32,32,32,32,33,33,33,33,33,33,34,34,34,34,34,35,35,35,35,35,36,36,36,37,37,37,38,38,39,39,40];
unsucc = [3,4,5,6,7,14,16,4,5,6,7,8,9,10,11,12,13,14,15,19,20,21,22,23,24,25,27,28,33,9,10,11,13,19,20,21,24,6,9,10,11,13,14,16,17,19,20,21,22,24,25,30,7,8,9,10,11,12,13,15,19,20,21,23,24,25,27,28,33,8,9,10,11,12,13,14,15,16,17,18,19,20,21,22,23,24,25,26,27,28,29,30,31,32,33,34,35,36,37,38,41,9,10,11,13,14,15,16,17,18,19,20,21,22,24,25,27,29,30,14,16,20,21,12,13,14,16,17,20,21,22,23,12,13,14,16,17,20,21,22,23,28,13,14,15,16,17,18,19,20,21,22,24,25,27,29,30,14,16,19,20,21,23,24,25,28,15,16,17,19,20,21,23,24,25,26,27,28,31,32,33,35,36,16,17,19,20,21,22,23,24,25,26,28,30,32,19,20,21,22,23,24,25,27,28,33,35,41,19,20,21,22,23,24,25,27,28,29,33,35,41,19,20,21,22,23,24,25,26,27,28,29,30,31,32,33,34,35,36,38,40,41,20,21,22,23,24,25,27,28,29,30,23,24,26,30,32,23,24,25,26,30,32,23,24,25,26,27,28,30,31,32,33,35,36,24,25,26,27,28,29,30,31,37,26,27,28,29,31,32,33,34,35,37,39,26,27,28,29,30,31,32,33,34,35,37,39,27,28,29,30,33,35,41,28,30,31,32,34,36,38,29,30,32,33,35,37,39,41,30,31,32,33,34,35,36,38,40,41,31,32,33,34,35,36,37,39,41,32,33,35,37,39,41,33,35,36,37,41,34,36,37,38,39,40,35,36,37,39,41,36,37,38,39,40,37,39,41,38,40,41,39,41,40,41,41];

USEFUL_RES = [{},
	{1,2,3,4,5,6,7,8,9,10,11,12,13,14,15,16,17,18,19,20,21,22,23,24,25,26,27,28,29,31,32,33,35,36,37,38},
	{1,3,4,5,6,7,8,9,10,11,12,13,14,15,16,17,18,19,20,21,22,23,24,25,26,27,28,29,30,31,32,33,34,35,36,37,38},
	{1,2,4,6,7,8,9,10,11,13,14,15,17,18,20,23,24,26,29,30,31,32,33,34,35,36,37,38},
	{1,2,3,4,5,6,7,8,9,10,11,12,13,14,15,16,17,18,19,20,21,22,23,24,25,26,27,28,29,30,31,32,33,34,35,36,37,38},
	{1,2,3,4,5,6,7,8,9,10,11,12,13,14,15,16,17,18,19,20,21,22,23,24,25,26,27,28,29,30,31,32,33,34,35,36,37,38},
	{1,2,3,4,5,6,7,8,9,10,11,12,13,14,15,16,17,18,19,20,21,22,23,24,25,26,27,28,29,30,31,32,33,34,35,36,37,38},
	{1,2,3,4,5,6,7,8,9,10,11,12,13,14,15,16,17,18,19,20,21,22,23,24,25,26,27,28,29,30,31,32,33,34,35,36,37,38},
	{1,2,3,4,5,6,7,8,9,10,11,12,13,14,15,16,17,18,19,20,21,22,23,24,25,26,27,28,29,30,31,32,33,34,35,36,37,38},
	{1,2,4,6,7,8,9,10,11,13,14,15,17,18,20,23,24,26,29,30,31,32,33,34,35,36,37,38},
	{1,2,3,4,5,6,7,8,9,10,11,12,13,14,15,16,17,18,19,20,21,22,23,24,25,26,27,28,29,30,31,32,33,34,35,36,37,38},
	{1,2,3,4,5,6,7,8,9,10,11,12,13,14,15,16,17,18,19,20,21,22,23,24,25,26,27,28,29,31,32,33,35,36,37,38},
	{1,2,3,4,5,6,7,8,9,10,11,12,13,14,15,16,17,18,19,20,21,22,23,24,25,26,27,28,29,30,31,32,33,34,35,36,37,38},
	{1,2,3,4,5,6,7,8,9,10,11,12,13,14,15,16,17,18,19,20,21,22,23,24,25,26,27,28,29,31,32,33,35,36,37,38},
	{1,3,4,5,6,7,8,9,10,11,12,13,14,15,16,17,18,19,20,21,22,23,24,25,26,27,28,29,30,31,32,33,34,35,36,37,38},
	{1,2,3,4,5,6,7,8,9,10,11,12,13,14,15,16,17,18,19,20,21,22,23,24,25,26,27,28,29,30,31,32,33,34,35,36,37,38},
	{1,2,3,4,5,6,7,8,9,11,12,13,14,15,17,18,20,21,22,23,24,26,27,29,31,32,33,35,36,37,38},
	{1,2,3,4,5,6,7,8,9,10,11,12,13,14,15,16,17,18,19,20,21,22,23,24,25,26,27,28,29,30,31,32,33,34,35,36,37,38},
	{1,2,3,4,5,6,7,8,9,10,11,12,13,14,15,16,17,18,19,20,21,23,24,25,26,27,28,29,30,31,32,33,34,35,36,37,38},
	{1,3,4,5,6,7,8,10,11,12,13,14,15,17,18,20,21,22,23,24,26,27,29,30,31,32,33,34,35,36,37,38},
	{1,2,3,4,5,6,7,8,9,10,11,12,13,14,15,16,17,18,19,20,21,22,23,24,25,26,27,28,29,30,31,32,33,34,35,36,37,38},
	{1,2,3,4,5,6,7,8,9,10,11,12,13,14,15,16,17,18,19,20,21,22,23,24,25,26,27,28,29,30,31,32,33,34,35,36,37,38},
	{1,2,3,4,5,6,7,8,9,10,11,12,13,14,15,16,17,18,19,20,21,22,23,24,25,26,27,28,29,30,31,32,33,34,35,36,37,38},
	{1,2,3,4,5,6,7,8,9,10,11,12,13,14,15,16,17,18,19,20,21,22,23,24,25,26,27,28,29,30,31,32,33,34,35,36,37,38},
	{1,2,3,4,5,6,7,8,9,10,11,12,13,14,15,16,17,18,19,20,21,23,24,25,26,27,28,29,30,31,32,33,34,35,36,37,38},
	{1,3,4,5,6,7,8,9,10,11,12,13,14,16,17,18,19,20,21,23,24,25,26,27,28,30,31,32,34,35,36,37,38},
	{1,2,3,4,5,6,7,8,9,10,11,12,13,14,15,16,17,18,19,20,21,22,23,24,25,26,27,28,29,30,31,32,33,34,35,36,37,38},
	{1,3,4,5,6,7,8,10,11,12,13,14,15,17,18,20,21,22,23,24,26,27,29,30,31,32,33,34,35,36,37,38},
	{1,2,3,4,5,6,7,8,9,10,11,12,13,14,15,16,17,18,19,20,21,22,23,24,25,26,27,28,29,31,32,33,35,36,37,38},
	{1,2,3,4,5,6,7,8,9,10,11,12,13,14,15,16,17,18,19,20,21,22,23,24,25,26,27,28,29,30,31,32,33,34,35,36,37,38},
	{1,2,3,4,5,6,7,8,9,10,11,12,13,14,15,17,18,20,21,22,23,24,26,27,29,30,31,32,33,34,35,36,37,38},
	{1,2,3,4,5,6,7,8,9,10,11,12,13,14,15,16,17,18,19,20,21,22,23,24,25,26,27,28,29,30,31,32,33,34,35,36,37,38},
	{1,2,3,4,5,7,8,9,10,11,12,13,14,15,16,17,18,19,20,21,23,24,25,26,27,28,29,31,32,33,36,37,38},
	{1,2,3,4,5,6,7,8,9,10,11,12,13,14,15,16,17,18,19,20,21,22,23,24,25,26,27,28,29,30,31,32,33,34,35,36,37,38},
	{1,2,3,4,5,6,7,8,9,10,11,12,13,14,15,16,17,18,19,20,21,22,23,24,25,26,27,28,29,30,31,32,33,34,35,36,37,38},
	{1,2,3,4,5,6,7,8,9,10,11,12,13,14,15,16,17,18,19,20,21,23,24,25,26,27,28,29,30,31,32,33,34,35,36,37,38},
	{1,2,3,4,5,6,7,8,9,10,11,12,13,14,15,16,17,18,19,20,21,22,23,24,25,26,27,28,29,30,31,32,33,34,35,36,37,38},
	{1,2,3,4,5,7,8,9,10,11,12,13,14,15,16,17,18,19,20,21,23,24,25,26,27,28,29,31,32,33,36,37,38},
	{1,2,3,4,5,6,7,8,9,10,11,12,13,14,15,16,17,18,19,20,21,22,23,24,25,26,27,28,29,30,31,32,33,34,35,36,37,38},
	{1,3,4,5,6,7,8,10,11,12,13,14,15,17,18,20,21,22,23,24,26,27,29,30,31,32,33,34,35,36,37,38},
	{1,2,3,4,5,6,7,8,9,11,12,13,14,15,17,18,20,21,22,23,24,26,27,29,31,32,33,35,36,37,38},
	{}];

POTENTIAL_ACT = [{2,3,4,5,6,7,8,9,10,11,12,13,14,15,16,17,18,19,20,21,22,23,24,25,26,27,28,29,30,31,32,33,34,35,36,37,38,39,40,41},
	{2,4,5,6,7,8,9,10,11,12,13,14,16,17,18,19,21,22,23,24,25,27,29,30,31,32,33,34,35,36,37,38,39,41},
	{2,3,5,6,7,8,9,11,12,13,14,15,16,17,18,19,20,21,22,23,24,25,26,27,28,29,30,31,32,33,34,35,36,37,38,39,40,41},
	{2,3,4,5,6,7,8,9,10,11,12,13,14,15,16,17,18,19,20,21,22,23,24,25,26,27,28,29,30,31,32,33,34,35,36,37,38,39,40,41},
	{2,3,5,6,7,8,9,11,12,13,14,15,16,17,18,19,20,21,22,23,24,25,26,27,28,29,30,31,32,33,34,35,36,37,38,39,40,41},
	{2,3,4,5,6,7,8,9,10,11,12,13,14,15,16,17,18,19,20,21,22,23,24,25,26,27,28,29,30,31,32,34,35,36,37,39,40,41},
	{2,3,4,5,6,7,8,9,10,11,12,13,14,15,16,17,18,19,20,21,22,23,24,25,26,27,28,29,30,31,32,33,34,35,36,37,38,39,40,41},
	{2,3,4,5,6,7,8,9,10,11,12,13,14,15,16,17,18,19,20,21,22,23,24,25,26,27,28,29,30,31,32,33,34,35,36,37,38,39,40,41},
	{2,3,4,5,6,7,8,9,10,11,12,13,14,15,16,17,18,19,21,22,23,24,25,26,27,29,30,31,32,33,34,35,36,37,38,39,41},
	{2,3,4,5,6,7,8,9,10,11,12,13,14,15,16,18,19,20,21,22,23,24,25,26,27,28,29,30,31,32,33,34,35,36,37,38,39,40},
	{2,3,4,5,6,7,8,9,10,11,12,13,14,15,16,17,18,19,20,21,22,23,24,25,26,27,28,29,30,31,32,33,34,35,36,37,38,39,40,41},
	{2,3,5,6,7,8,9,11,12,13,14,15,16,17,18,19,20,21,22,23,24,25,26,27,28,29,30,31,32,33,34,35,36,37,38,39,40,41},
	{2,3,4,5,6,7,8,9,10,11,12,13,14,15,16,17,18,19,20,21,22,23,24,25,26,27,28,29,30,31,32,33,34,35,36,37,38,39,40,41},
	{2,3,4,5,6,7,8,9,10,11,12,13,14,15,16,17,18,19,20,21,22,23,24,25,26,27,28,29,30,31,32,33,34,35,36,37,38,39,40,41},
	{2,3,4,5,6,7,8,9,10,11,12,13,14,15,16,17,18,19,20,21,22,23,24,25,27,28,29,30,31,32,33,34,35,36,37,38,39,40,41},
	{2,3,5,6,7,8,9,11,12,13,14,15,16,18,19,21,22,23,24,25,26,27,29,30,32,33,34,35,36,37,38,39},
	{2,3,4,5,6,7,8,9,10,11,12,13,14,15,16,17,18,19,20,21,22,23,24,25,26,27,28,29,30,31,32,33,34,35,36,37,38,39,40,41},
	{2,3,4,5,6,7,8,9,10,11,12,13,14,15,16,17,18,19,20,21,22,23,24,25,26,27,28,29,30,31,32,33,34,35,36,37,38,39,40,41},
	{2,3,5,6,7,8,9,11,12,13,14,15,16,18,19,21,22,23,24,25,26,27,29,30,32,33,34,35,36,37,38,39},
	{2,3,4,5,6,7,8,9,10,11,12,13,14,15,16,17,18,19,20,21,22,23,24,25,26,27,28,29,30,31,32,33,34,35,36,37,38,39,40,41},
	{2,3,5,6,7,8,9,11,12,13,14,15,16,17,18,19,20,21,22,23,24,25,26,27,28,29,30,31,32,33,34,35,36,37,38,39,40,41},
	{2,3,5,6,7,8,9,11,12,13,14,15,16,17,18,20,21,22,23,24,27,28,29,30,31,32,34,35,37,39,40,41},
	{2,3,4,5,6,7,8,9,10,11,12,13,14,15,16,17,18,19,20,21,22,23,24,25,26,27,28,29,30,31,32,33,34,35,36,37,38,39,40,41},
	{2,3,4,5,6,7,8,9,10,11,12,13,14,15,16,17,18,19,20,21,22,23,24,25,26,27,28,29,30,31,32,33,34,35,36,37,38,39,40,41},
	{2,3,5,6,7,8,9,11,12,13,14,15,16,18,19,21,22,23,24,25,26,27,29,30,32,33,34,35,36,37,38,39},
	{2,3,4,5,6,7,8,9,10,11,12,13,14,15,16,17,18,19,20,21,22,23,24,25,26,27,28,29,30,31,32,33,34,35,36,37,38,39,40,41},
	{2,3,5,6,7,8,9,11,12,13,14,15,16,17,18,19,20,21,22,23,24,25,26,27,28,29,30,31,32,33,34,35,36,37,38,39,40,41},
	{2,3,5,6,7,8,9,11,12,13,14,15,16,18,19,21,22,23,24,25,26,27,29,30,32,33,34,35,36,37,38,39},
	{2,3,4,5,6,7,8,9,10,11,12,13,14,15,16,17,18,19,20,21,22,23,24,25,27,28,29,30,31,32,33,34,35,36,37,38,39,40,41},
	{3,4,5,6,7,8,9,10,11,13,15,16,18,19,20,21,22,23,24,25,26,27,28,30,31,32,34,35,36,37,39,40},
	{2,3,4,5,6,7,8,9,10,11,12,13,14,15,16,17,18,19,20,21,22,23,24,25,26,27,28,29,30,31,32,33,34,35,36,37,38,39,40,41},
	{2,3,4,5,6,7,8,9,10,11,12,13,14,15,16,17,18,19,20,21,22,23,24,25,26,27,28,29,30,31,32,33,34,35,36,37,38,39,40,41},
	{2,3,4,5,6,7,8,9,10,11,12,13,14,15,16,17,18,19,20,21,22,23,24,25,27,28,29,30,31,32,33,34,35,36,37,38,39,40,41},
	{3,4,5,6,7,8,9,10,11,13,15,16,18,19,20,21,22,23,24,25,26,27,28,30,31,32,34,35,36,37,39,40},
	{2,3,4,5,6,7,8,9,10,11,12,13,14,15,16,17,18,19,20,21,22,23,24,25,26,27,28,29,30,31,32,34,35,36,37,39,40,41},
	{2,3,4,5,6,7,8,9,10,11,12,13,14,15,16,17,18,19,20,21,22,23,24,25,26,27,28,29,30,31,32,33,34,35,36,37,38,39,40,41},
	{2,3,4,5,6,7,8,9,10,11,12,13,14,15,16,17,18,19,20,21,22,23,24,25,26,27,28,29,30,31,32,33,34,35,36,37,38,39,40,41},
	{2,3,4,5,6,7,8,9,10,11,12,13,14,15,16,17,18,19,20,21,22,23,24,25,26,27,28,29,30,31,32,33,34,35,36,37,38,39,40,41}];
